c A SAT instance generated from a 3-CNF formula that had 14 clauses and 7 variables
p cnf 7 14
4 -5 -2 0
-4 -3 6 0
-3 -2 -6 0
-7 -1 6 0
3 -4 2 0
-3 2 -4 0
-6 -3 -4 0
7 -5 -2 0
-6 -1 -3 0
-3 5 6 0
2 7 -5 0
2 -5 4 0
-1 7 2 0
-4 6 2 0
